p cnf 165 764
-13 28 -1 -25 0
-7 29 -13 -19 0
-16 -7 30 -25 0
-22 -13 -4 31 0
32 -19 -10 -1 0
33 -22 -19 -25 0
-16 34 -13 -10 0
-7 35 -4 -1 0
-23 -6 36 0
-12 37 -17 0
-24 -5 38 0
-11 -18 39 0
40 -23 -5 0
41 -11 -17 0
-24 -6 42 0
43 -12 -18 0
-21 44 -26 0
45 -2 -9 0
-20 -27 46 0
-8 -3 47 0
48 -23 -4 0
49 -22 -5 0
50 -10 -17 0
-16 51 -11 0
-20 -26 52 0
-8 53 -2 0
-21 -27 54 0
-31 -54 -47 -39 0
-31 -54 -37 -47 0
-31 -54 -45 -39 0
-31 -54 -45 -37 0
-9 -3 55 0
56 -14 -18 0
57 -14 -12 0
58 -19 -26 0
-31 -45 -39 -58 0
-31 -45 -58 -37 0
-31 -47 -39 -58 0
-8 59 -1 0
-7 60 -2 0
-20 61 -25 0
-31 -45 -37 -61 0
-31 -61 -47 -39 0
-31 -61 -47 -37 0
-24 -4 62 0
-6 -22 63 0
64 -14 -11 0
65 -14 -17 0
66 -20 -3 0
67 -26 -9 0
-8 68 -27 0
-21 69 -2 0
-15 -11 70 0
-15 -17 71 0
72 -15 -5 0
73 -23 -15 0
-8 74 -26 0
75 -20 -2 0
-14 -6 76 0
-24 -14 77 0
-16 -12 78 0
-18 -10 79 0
80 -14 -5 0
81 -14 -23 0
-8 82 -19 0
83 -2 -25 0
-7 -20 84 0
85 -1 -26 0
-15 -18 86 0
-15 -12 87 0
-24 -15 88 0
89 -6 -15 0
-27 90 -19 0
91 -1 -9 0
-7 92 -3 0
-21 93 -25 0
-21 -3 94 0
-9 -27 95 0
-8 96 -25 0
97 -19 -2 0
98 -20 -1 0
-7 99 -26 0
-14 -22 100 0
-14 -4 101 0
-16 -14 102 0
-14 -10 103 0
104 -13 -11 0
105 -13 -17 0
106 -13 -5 0
-23 107 -13 0
-8 108 -28 -20 0
-48 -108 -50 0
-108 -42 -50 0
-108 -50 -49 0
-48 -108 -51 0
-108 -51 -42 0
-16 -108 -10 -40 0
-39 -62 -108 0
-108 -51 -49 0
-62 -37 -108 0
-22 -108 -4 -41 0
-63 -37 -108 0
-63 -39 -108 0
-78 -36 -108 0
-78 -38 -108 0
-79 -36 -108 0
-108 -43 -42 0
-79 -38 -108 0
-48 -108 -43 0
-108 -43 -49 0
-29 109 -26 -2 0
-109 -42 -50 0
-109 -50 -49 0
-48 -109 -51 0
-109 -51 -42 0
-109 -51 -49 0
-39 -62 -109 0
-62 -37 -109 0
-63 -109 -39 0
-63 -37 -109 0
-16 -109 -10 -40 0
-78 -38 -109 0
-22 -109 -4 -41 0
-78 -109 -36 0
-79 -109 -36 0
-79 -38 -109 0
-109 -43 -42 0
-48 -109 -43 0
-109 -43 -49 0
-48 -109 -50 0
-28 -20 110 -9 0
-110 -37 -49 0
-38 -51 -110 0
-110 -37 -42 0
-39 -110 -49 0
-39 -110 -42 0
-63 -110 -41 0
-38 -50 -110 0
-38 -43 -110 0
-40 -78 -110 0
-110 -36 -50 0
-110 -36 -43 0
-48 -110 -37 0
-62 -41 -110 0
-40 -79 -110 0
-48 -39 -110 0
-110 -36 -51 0
-8 -21 -28 111 0
-39 -111 -49 0
-40 -111 -78 0
-111 -37 -42 0
-39 -111 -42 0
-111 -38 -50 0
-40 -79 -111 0
-111 -36 -50 0
-111 -38 -43 0
-111 -36 -43 0
-48 -111 -37 0
-111 -62 -41 0
-111 -36 -51 0
-48 -39 -111 0
-111 -37 -49 0
-111 -38 -51 0
-63 -111 -41 0
112 -29 -27 -2 0
-112 -38 -50 0
-112 -36 -50 0
-112 -39 -42 0
-112 -62 -41 0
-112 -37 -42 0
-48 -39 -112 0
-112 -36 -51 0
-112 -38 -51 0
-48 -37 -112 0
-112 -63 -41 0
-112 -38 -43 0
-112 -36 -43 0
-40 -78 -112 0
-112 -37 -49 0
-40 -79 -112 0
-112 -39 -49 0
113 -29 -3 -26 0
-36 -51 -113 0
-63 -41 -113 0
-40 -78 -113 0
-38 -51 -113 0
-48 -39 -113 0
-37 -42 -113 0
-39 -42 -113 0
-48 -37 -113 0
-36 -43 -113 0
-40 -79 -113 0
-38 -43 -113 0
-49 -37 -113 0
-39 -49 -113 0
-38 -50 -113 0
-62 -41 -113 0
-36 -50 -113 0
114 -21 -28 -9 0
-48 -114 -41 0
-42 -114 -41 0
-40 -43 -114 0
-41 -114 -49 0
-40 -50 -114 0
-40 -51 -114 0
115 -3 -29 -27 0
-48 -115 -41 0
-115 -42 -41 0
-41 -115 -49 0
-40 -43 -115 0
-40 -115 -50 0
-40 -51 -115 0
-31 -52 116 0
-78 -45 -116 0
-47 -78 -116 0
-92 -37 -116 0
-60 -116 -43 0
-60 -116 -50 0
-55 -116 -50 0
-47 -79 -116 0
-51 -116 -59 0
-39 -92 -116 0
-7 -116 -1 -41 0
-55 -116 -51 0
-79 -45 -116 0
-55 -116 -43 0
-16 -53 -116 -10 0
-43 -116 -59 0
-39 -116 -91 0
-37 -116 -91 0
-64 -30 117 0
-62 -69 -117 0
-63 -69 -117 0
-48 -117 -97 0
-97 -117 -49 0
-62 -117 -66 0
-63 -117 -66 0
-117 -42 -97 0
-94 -117 -49 0
-94 -117 -42 0
-48 -94 -117 0
-117 -98 -49 0
-117 -42 -98 0
-48 -117 -98 0
-3 -38 -117 -19 0
-3 -117 -36 -19 0
-21 -117 -1 -36 0
-38 -21 -117 -1 0
-32 118 -65 0
-63 -118 -67 0
-48 -118 -99 0
-95 -118 -42 0
-48 -95 -118 0
-62 -67 -118 0
-95 -118 -49 0
-118 -99 -49 0
-118 -99 -42 0
-62 -68 -118 0
-96 -118 -49 0
-96 -118 -48 0
-63 -118 -68 0
-96 -118 -42 0
-7 -118 -36 -27 0
-7 -38 -27 -118 0
-38 -118 -9 -25 0
-118 -9 -36 -25 0
-31 -53 119 0
-119 -51 -58 0
-78 -119 -46 0
-119 -61 -50 0
-119 -61 -43 0
-119 -78 -44 0
-79 -119 -44 0
-79 -46 -119 0
-39 -119 -93 0
-119 -41 -19 -25 0
-119 -93 -37 0
-119 -54 -50 0
-39 -119 -90 0
-119 -37 -90 0
-119 -43 -58 0
-119 -54 -43 0
-119 -54 -51 0
120 -37 -35 0
-120 -44 -107 0
-120 -46 -107 0
-120 -93 -81 0
-120 -15 -22 -52 0
-24 -13 -52 -120 0
-120 -90 -81 0
-120 -100 -44 0
-120 -61 -73 0
-88 -44 -120 0
-120 -46 -100 0
-88 -46 -120 0
-120 -58 -73 0
-120 -54 -73 0
-120 -61 -77 0
-120 -54 -77 0
-120 -77 -58 0
121 -37 -33 0
-72 -60 -121 0
-60 -76 -121 0
-72 -55 -121 0
-72 -59 -121 0
-80 -91 -121 0
-55 -76 -121 0
-45 -101 -121 0
-76 -59 -121 0
-15 -53 -4 -121 0
-6 -13 -53 -121 0
-45 -106 -121 0
-47 -101 -121 0
-47 -106 -121 0
-80 -92 -121 0
-89 -45 -121 0
-47 -89 -121 0
-39 122 -35 0
-88 -46 -122 0
-88 -44 -122 0
-44 -107 -122 0
-58 -122 -73 0
-46 -107 -122 0
-15 -22 -52 -122 0
-24 -13 -52 -122 0
-54 -122 -73 0
-54 -77 -122 0
-61 -122 -73 0
-61 -77 -122 0
-93 -122 -81 0
-77 -58 -122 0
-90 -122 -81 0
-44 -100 -122 0
-46 -100 -122 0
-39 123 -33 0
-47 -123 -89 0
-45 -123 -89 0
-55 -76 -123 0
-6 -53 -123 -13 0
-15 -53 -4 -123 0
-72 -55 -123 0
-45 -101 -123 0
-45 -123 -106 0
-47 -123 -106 0
-47 -101 -123 0
-80 -91 -123 0
-76 -59 -123 0
-72 -59 -123 0
-76 -60 -123 0
-80 -92 -123 0
-72 -60 -123 0
-44 124 -34 0
-62 -53 -124 0
-45 -124 -42 0
-63 -53 -124 0
-40 -124 -91 0
-40 -92 -124 0
-47 -124 -42 0
-38 -60 -124 0
-60 -124 -36 0
-48 -45 -124 0
-36 -124 -59 0
-55 -36 -124 0
-55 -38 -124 0
-45 -124 -49 0
-38 -124 -59 0
-47 -124 -49 0
-48 -47 -124 0
-46 125 -34 0
-38 -125 -60 0
-36 -60 -125 0
-40 -125 -91 0
-47 -125 -49 0
-45 -125 -42 0
-47 -125 -42 0
-55 -38 -125 0
-62 -53 -125 0
-48 -47 -125 0
-48 -45 -125 0
-63 -53 -125 0
-45 -125 -49 0
-125 -36 -59 0
-55 -125 -36 0
-38 -125 -59 0
-40 -125 -92 0
-32 -36 126 0
-56 -95 -126 0
-95 -126 -71 0
-102 -68 -126 0
-86 -68 -126 0
-96 -126 -56 0
-96 -71 -126 0
-86 -67 -126 0
-126 -13 -74 -18 0
-16 -15 -126 -74 0
-102 -67 -126 0
-56 -126 -99 0
-71 -126 -99 0
-126 -67 -105 0
-126 -68 -105 0
-32 -38 127 0
-96 -71 -127 0
-96 -127 -56 0
-127 -102 -67 0
-127 -86 -68 0
-127 -86 -67 0
-127 -13 -74 -18 0
-16 -127 -15 -74 0
-56 -127 -99 0
-71 -127 -99 0
-127 -68 -105 0
-127 -102 -68 0
-127 -67 -105 0
-95 -127 -71 0
-56 -95 -127 0
128 -30 -36 0
-104 -128 -66 0
-104 -69 -128 0
-128 -70 -98 0
-128 -98 -57 0
-128 -87 -69 0
-128 -87 -66 0
-128 -15 -75 -10 0
-128 -13 -12 -75 0
-70 -94 -128 0
-128 -94 -57 0
-128 -103 -69 0
-128 -103 -66 0
-128 -97 -57 0
-128 -70 -97 0
129 -38 -30 0
-87 -66 -129 0
-87 -69 -129 0
-15 -75 -10 -129 0
-13 -12 -75 -129 0
-70 -94 -129 0
-94 -57 -129 0
-103 -69 -129 0
-104 -66 -129 0
-104 -69 -129 0
-103 -66 -129 0
-97 -70 -129 0
-97 -129 -57 0
-70 -98 -129 0
-57 -98 -129 0
-31 130 -41 0
-46 -92 -130 0
-55 -61 -130 0
-47 -93 -130 0
-93 -130 -45 0
-55 -54 -130 0
-55 -58 -130 0
-54 -59 -130 0
-47 -90 -130 0
-54 -60 -130 0
-44 -91 -130 0
-46 -91 -130 0
-45 -90 -130 0
-44 -92 -130 0
131 -52 -34 0
-47 -62 -131 0
-62 -45 -131 0
-63 -45 -131 0
-63 -47 -131 0
-55 -131 -42 0
-55 -131 -49 0
-59 -131 -42 0
-59 -131 -49 0
-38 -131 -91 0
-60 -131 -42 0
-38 -92 -131 0
-60 -131 -49 0
-40 132 -28 0
-84 -132 -51 0
-132 -43 -82 0
-132 -51 -82 0
-132 -50 -82 0
-37 -132 -19 -9 0
-7 -37 -132 -21 0
-39 -21 -132 -7 0
-39 -132 -19 -9 0
-84 -132 -50 0
-84 -132 -43 0
-7 -132 -19 -41 0
-40 -30 133 0
-13 -12 -66 -133 0
-104 -94 -133 0
-87 -94 -133 0
-87 -133 -97 0
-15 -69 -10 -133 0
-87 -133 -98 0
-13 -12 -69 -133 0
-70 -21 -1 -133 0
-3 -70 -133 -19 0
-13 -75 -10 -133 0
-15 -133 -66 -10 0
-40 -32 134 0
-95 -86 -134 0
-134 -13 -67 -18 0
-16 -15 -134 -67 0
-96 -86 -134 0
-86 -99 -134 0
-16 -15 -134 -68 0
-134 -13 -68 -18 0
-16 -134 -13 -74 0
-95 -134 -105 0
-71 -134 -9 -25 0
-7 -134 -71 -27 0
-41 -28 135 0
-48 -135 -84 0
-135 -84 -42 0
-135 -84 -49 0
-48 -135 -82 0
-135 -82 -42 0
-7 -21 -36 -135 0
-135 -38 -19 -9 0
-135 -36 -19 -9 0
-7 -38 -21 -135 0
-135 -82 -49 0
136 -31 -44 0
-136 -55 -39 0
-136 -55 -37 0
-136 -39 -60 0
-136 -37 -60 0
-136 -47 -43 0
-136 -45 -50 0
-136 -45 -51 0
-136 -47 -51 0
-136 -45 -43 0
-136 -39 -59 0
-31 -46 137 0
-45 -43 -137 0
-47 -43 -137 0
-47 -50 -137 0
-45 -50 -137 0
-47 -51 -137 0
-39 -59 -137 0
-37 -59 -137 0
-55 -39 -137 0
-55 -37 -137 0
-37 -60 -137 0
138 -45 -33 0
-72 -43 -138 0
-72 -51 -138 0
-72 -50 -138 0
-76 -51 -138 0
-76 -43 -138 0
-76 -50 -138 0
-15 -4 -138 -41 0
-6 -13 -138 -41 0
-47 139 -33 0
-15 -4 -139 -41 0
-6 -13 -139 -41 0
-72 -51 -139 0
-76 -139 -50 0
-43 -76 -139 0
-51 -76 -139 0
-72 -139 -50 0
-72 -43 -139 0
140 -44 -35 0
-77 -140 -43 0
-77 -140 -50 0
-77 -140 -51 0
-15 -22 -140 -41 0
-24 -13 -140 -41 0
-140 -50 -73 0
-140 -51 -73 0
-140 -43 -73 0
-46 -35 141 0
-77 -51 -141 0
-77 -43 -141 0
-77 -50 -141 0
-15 -22 -141 -41 0
-141 -43 -73 0
-141 -50 -73 0
-24 -13 -141 -41 0
-141 -51 -73 0
-40 -29 142 0
-142 -85 -50 0
-142 -85 -43 0
-142 -85 -51 0
-142 -37 -3 -25 0
-39 -142 -27 -1 0
-142 -37 -27 -1 0
-39 -142 -3 -25 0
-142 -83 -50 0
-142 -51 -83 0
-142 -43 -83 0
-41 -29 143 0
-48 -143 -85 0
-143 -36 -3 -25 0
-143 -38 -3 -25 0
-143 -36 -27 -1 0
-143 -38 -27 -1 0
-143 -83 -42 0
-48 -143 -83 0
-143 -83 -49 0
-143 -85 -42 0
-143 -85 -49 0
-40 144 -34 0
-144 -55 -54 0
-144 -54 -60 0
-144 -45 -90 0
-144 -47 -90 0
-144 -55 -58 0
-144 -54 -59 0
-144 -47 -93 0
-144 -93 -45 0
-144 -55 -61 0
-32 145 -74 0
-102 -49 -145 0
-102 -42 -145 0
-48 -102 -145 0
-56 -63 -145 0
-56 -62 -145 0
-86 -42 -145 0
-48 -86 -145 0
-86 -49 -145 0
-30 -75 146 0
-48 -103 -146 0
-103 -146 -49 0
-63 -146 -57 0
-62 -146 -57 0
-48 -87 -146 0
-87 -146 -49 0
-87 -42 -146 0
-103 -42 -146 0
147 -36 -34 0
-54 -45 -147 0
-45 -147 -61 0
-53 -147 -90 0
-93 -147 -53 0
-45 -147 -58 0
-47 -147 -58 0
-47 -61 -147 0
-47 -54 -147 0
-53 148 -33 0
-101 -148 -50 0
-101 -148 -43 0
-101 -148 -51 0
-148 -43 -89 0
-148 -51 -89 0
-148 -50 -89 0
-52 -35 149 0
-149 -100 -51 0
-149 -100 -43 0
-149 -100 -50 0
-88 -149 -43 0
-88 -149 -50 0
-88 -149 -51 0
-80 150 -33 0
-51 -150 -59 0
-43 -150 -59 0
-55 -150 -50 0
-150 -60 -50 0
-150 -60 -43 0
-55 -150 -51 0
-55 -150 -43 0
-81 -35 151 0
-151 -54 -50 0
-151 -54 -43 0
-151 -54 -51 0
-151 -51 -58 0
-151 -43 -58 0
-151 -61 -50 0
-151 -61 -43 0
152 -53 -34 0
-152 -54 -42 0
-152 -42 -58 0
-48 -152 -58 0
-152 -61 -42 0
-48 -61 -152 0
-48 -54 -152 0
153 -30 -57 0
-49 -69 -153 0
-69 -42 -153 0
-48 -69 -153 0
-48 -66 -153 0
-42 -66 -153 0
-49 -66 -153 0
-56 -32 154 0
-42 -67 -154 0
-48 -67 -154 0
-67 -154 -49 0
-48 -68 -154 0
-68 -154 -49 0
-68 -42 -154 0
155 -35 -41 0
-54 -155 -107 0
-88 -61 -155 0
-88 -155 -58 0
-88 -54 -155 0
-155 -90 -73 0
-93 -155 -73 0
-41 156 -33 0
-55 -156 -106 0
-55 -156 -89 0
-60 -156 -89 0
-156 -59 -89 0
-72 -156 -91 0
-72 -92 -156 0
-32 -71 157 0
-157 -67 -42 0
-157 -67 -49 0
-48 -157 -67 0
-157 -68 -42 0
-157 -68 -49 0
-48 -157 -68 0
-70 -30 158 0
-158 -66 -49 0
-48 -158 -66 0
-158 -69 -42 0
-158 -69 -49 0
-48 -158 -69 0
-158 -66 -42 0
-38 -34 159 0
-159 -45 -58 0
-47 -159 -58 0
-159 -45 -61 0
-47 -61 -159 0
-47 -54 -159 0
-159 -54 -45 0
-16 160 -57 0
-160 -5 -139 0
-24 -149 -160 0
-160 -23 -140 0
-160 -5 -138 0
-160 -23 -141 0
-160 -6 -148 0
-56 161 -10 0
-24 -149 -161 0
-5 -139 -161 0
-23 -140 -161 0
-23 -141 -161 0
-6 -148 -161 0
-5 -138 -161 0
162 -37 -36 0
-28 -82 -162 0
-29 -83 -162 0
-115 -162 0
-84 -28 -162 0
-29 -85 -162 0
-114 -162 0
-38 -37 163 0
-28 -163 -82 0
-163 -115 0
-29 -163 -83 0
-28 -84 -163 0
-85 -29 -163 0
-163 -114 0
-39 -36 164 0
-28 -82 -164 0
-29 -164 -83 0
-84 -28 -164 0
-29 -164 -85 0
-164 -114 0
-164 -115 0
-39 -38 165 0
-165 -28 -82 0
-165 -83 -29 0
-165 -84 -28 0
-165 -85 -29 0
-165 -114 0
-165 -115 0
